(set-logic QF_FPBV)
(set-option :produce-models true)
(set-info :source |Random FP created by PyMPF|)
(set-info :category random)
(set-info :status sat)
;; fp.from.ubv(BitVec 32)
(declare-const x (_ BitVec 32))
(assert (= x #b11000111100110100101111001100111))
;; x should be 3348782695
(declare-const r Float64)
(assert (= r ((_ to_fp_unsigned 11 53) RNE x)))
(assert (fp.eq r (fp #b0 #b10000011110 #b1000111100110100101111001100111000000000000000000000)))
(check-sat)
(exit)
